benchmarks_CP/INST_49x49/40/inst49x49_40_7.dzn
S=7;
start=[|
-1,	-1,	-1,	-1,	48,	-1,	39,	-1,	43,	-1,	7,	-1,	-1,	-1,	32,	44,	34,	26,	-1,	-1,	-1,	-1,	-1,	15,	1,	-1,	-1,	10,	49,	-1,	-1,	-1,	36,	-1,	-1,	-1,	-1,	-1,	-1,	-1,	24,	40,	33,	19,	17,	-1,	-1,	-1,	-1|
38,	-1,	-1,	-1,	23,	-1,	1,	-1,	5,	6,	2,	28,	-1,	-1,	17,	12,	29,	-1,	-1,	-1,	-1,	-1,	47,	36,	-1,	-1,	-1,	-1,	27,	-1,	11,	-1,	16,	-1,	-1,	-1,	26,	-1,	-1,	-1,	44,	-1,	37,	-1,	18,	-1,	-1,	14,	46|
-1,	-1,	-1,	40,	-1,	-1,	-1,	-1,	-1,	15,	30,	13,	11,	-1,	5,	-1,	-1,	-1,	-1,	7,	-1,	14,	16,	-1,	43,	-1,	-1,	-1,	32,	-1,	-1,	-1,	-1,	44,	23,	27,	12,	34,	-1,	-1,	-1,	37,	-1,	24,	6,	-1,	-1,	41,	25|
17,	-1,	-1,	-1,	42,	-1,	32,	-1,	31,	-1,	-1,	-1,	16,	-1,	-1,	-1,	-1,	-1,	-1,	6,	37,	-1,	41,	7,	-1,	20,	33,	-1,	8,	-1,	29,	-1,	-1,	-1,	24,	-1,	46,	49,	43,	-1,	-1,	-1,	10,	12,	-1,	-1,	-1,	-1,	2|
-1,	-1,	-1,	49,	11,	-1,	-1,	23,	41,	25,	32,	42,	-1,	-1,	-1,	-1,	-1,	-1,	-1,	47,	46,	-1,	5,	6,	-1,	3,	9,	45,	38,	-1,	10,	37,	-1,	22,	-1,	-1,	18,	30,	17,	35,	14,	21,	-1,	-1,	43,	-1,	-1,	-1,	27|
12,	9,	43,	-1,	33,	5,	15,	-1,	-1,	-1,	-1,	49,	22,	-1,	19,	2,	13,	-1,	-1,	-1,	-1,	21,	-1,	32,	-1,	-1,	-1,	27,	30,	-1,	-1,	18,	-1,	-1,	28,	-1,	10,	-1,	11,	-1,	23,	-1,	16,	-1,	-1,	35,	-1,	8,	-1|
-1,	46,	-1,	27,	21,	-1,	-1,	-1,	-1,	14,	26,	-1,	20,	-1,	-1,	-1,	-1,	-1,	-1,	-1,	-1,	-1,	23,	-1,	35,	-1,	-1,	-1,	-1,	41,	-1,	-1,	48,	34,	47,	25,	16,	-1,	28,	19,	2,	-1,	9,	36,	13,	32,	3,	-1,	39|
21,	37,	-1,	-1,	-1,	-1,	29,	4,	-1,	47,	41,	-1,	-1,	-1,	10,	-1,	-1,	18,	-1,	45,	-1,	-1,	-1,	-1,	-1,	2,	-1,	12,	-1,	-1,	17,	30,	-1,	9,	-1,	-1,	-1,	44,	-1,	-1,	32,	13,	28,	-1,	-1,	-1,	5,	15,	-1|
-1,	47,	45,	-1,	18,	27,	-1,	48,	-1,	-1,	-1,	-1,	-1,	31,	7,	-1,	17,	36,	-1,	-1,	-1,	41,	-1,	4,	-1,	-1,	-1,	16,	-1,	2,	23,	14,	46,	42,	19,	-1,	-1,	-1,	-1,	28,	22,	6,	-1,	-1,	38,	-1,	-1,	26,	20|
15,	-1,	-1,	-1,	-1,	-1,	-1,	-1,	38,	7,	-1,	19,	-1,	16,	-1,	-1,	25,	31,	-1,	42,	-1,	43,	-1,	-1,	49,	-1,	-1,	-1,	-1,	4,	-1,	8,	-1,	28,	12,	-1,	-1,	46,	-1,	-1,	-1,	-1,	-1,	6,	47,	30,	27,	-1,	-1|
30,	-1,	-1,	24,	43,	-1,	5,	-1,	-1,	-1,	-1,	-1,	-1,	-1,	16,	37,	-1,	-1,	-1,	11,	-1,	-1,	34,	10,	28,	-1,	-1,	-1,	45,	-1,	-1,	3,	-1,	-1,	-1,	-1,	20,	27,	-1,	-1,	-1,	42,	-1,	-1,	-1,	12,	-1,	-1,	-1|
22,	-1,	4,	-1,	-1,	-1,	40,	26,	42,	-1,	25,	-1,	-1,	-1,	2,	-1,	-1,	20,	23,	-1,	-1,	-1,	-1,	-1,	47,	33,	-1,	24,	-1,	10,	-1,	35,	18,	-1,	43,	8,	37,	11,	-1,	17,	19,	5,	44,	1,	-1,	13,	-1,	-1,	7|
1,	-1,	19,	-1,	-1,	-1,	-1,	-1,	23,	24,	6,	37,	44,	27,	-1,	26,	-1,	-1,	-1,	-1,	-1,	-1,	-1,	-1,	-1,	-1,	30,	-1,	-1,	48,	7,	5,	-1,	-1,	20,	-1,	-1,	-1,	36,	-1,	12,	-1,	-1,	-1,	-1,	31,	-1,	-1,	-1|
-1,	-1,	-1,	-1,	8,	6,	-1,	-1,	14,	-1,	46,	-1,	1,	20,	27,	-1,	-1,	-1,	-1,	40,	-1,	-1,	32,	-1,	-1,	19,	11,	-1,	-1,	-1,	22,	31,	-1,	-1,	-1,	-1,	-1,	-1,	-1,	-1,	-1,	-1,	18,	-1,	4,	-1,	-1,	10,	16|
-1,	25,	-1,	32,	-1,	26,	4,	30,	-1,	20,	-1,	15,	41,	-1,	-1,	6,	44,	-1,	-1,	-1,	-1,	24,	-1,	-1,	-1,	-1,	-1,	-1,	33,	49,	38,	-1,	10,	-1,	-1,	-1,	-1,	31,	-1,	14,	8,	-1,	-1,	42,	-1,	37,	-1,	-1,	23|
9,	-1,	21,	46,	-1,	-1,	27,	6,	16,	3,	-1,	-1,	-1,	33,	-1,	-1,	-1,	11,	-1,	-1,	7,	-1,	-1,	19,	-1,	-1,	-1,	-1,	22,	-1,	45,	-1,	-1,	47,	-1,	5,	-1,	23,	39,	-1,	-1,	-1,	-1,	-1,	-1,	-1,	-1,	-1,	24|
-1,	-1,	-1,	45,	20,	-1,	37,	-1,	-1,	19,	-1,	-1,	-1,	-1,	31,	-1,	49,	41,	-1,	43,	-1,	47,	1,	2,	-1,	-1,	-1,	25,	-1,	-1,	-1,	-1,	-1,	-1,	5,	-1,	-1,	38,	-1,	-1,	-1,	-1,	22,	-1,	-1,	-1,	9,	16,	-1|
-1,	-1,	-1,	-1,	-1,	-1,	-1,	39,	17,	-1,	49,	48,	-1,	28,	24,	23,	27,	29,	-1,	-1,	8,	37,	-1,	34,	-1,	44,	-1,	38,	-1,	-1,	-1,	-1,	-1,	14,	-1,	-1,	-1,	-1,	-1,	-1,	-1,	16,	-1,	4,	-1,	-1,	-1,	36,	32|
39,	-1,	16,	-1,	47,	-1,	-1,	-1,	-1,	10,	-1,	8,	-1,	-1,	45,	1,	-1,	12,	-1,	-1,	-1,	26,	-1,	-1,	23,	18,	-1,	-1,	-1,	-1,	-1,	32,	-1,	30,	-1,	-1,	25,	-1,	-1,	-1,	43,	-1,	40,	48,	2,	19,	-1,	-1,	-1|
-1,	-1,	34,	-1,	-1,	-1,	38,	45,	-1,	-1,	-1,	1,	9,	-1,	-1,	-1,	48,	-1,	-1,	-1,	20,	-1,	-1,	-1,	-1,	-1,	16,	32,	46,	-1,	35,	19,	42,	-1,	-1,	-1,	-1,	-1,	12,	-1,	-1,	-1,	-1,	-1,	28,	-1,	-1,	-1,	-1|
-1,	-1,	24,	-1,	5,	-1,	-1,	-1,	7,	-1,	31,	-1,	23,	40,	-1,	15,	37,	-1,	-1,	-1,	-1,	33,	-1,	-1,	-1,	46,	27,	4,	9,	-1,	-1,	-1,	8,	-1,	16,	22,	1,	-1,	-1,	-1,	-1,	-1,	-1,	47,	-1,	18,	-1,	-1,	12|
-1,	12,	29,	-1,	-1,	-1,	-1,	-1,	26,	13,	37,	-1,	-1,	-1,	21,	-1,	47,	-1,	-1,	-1,	-1,	-1,	-1,	-1,	32,	-1,	-1,	15,	2,	44,	-1,	24,	-1,	-1,	-1,	28,	-1,	-1,	-1,	38,	-1,	39,	-1,	30,	22,	-1,	-1,	43,	-1|
-1,	7,	10,	-1,	-1,	-1,	31,	-1,	21,	-1,	38,	23,	-1,	-1,	-1,	-1,	-1,	-1,	-1,	-1,	28,	-1,	-1,	-1,	-1,	-1,	-1,	-1,	5,	22,	-1,	47,	-1,	-1,	30,	-1,	-1,	14,	32,	-1,	1,	-1,	20,	-1,	-1,	-1,	-1,	11,	-1|
5,	-1,	25,	9,	-1,	-1,	-1,	18,	-1,	-1,	-1,	-1,	-1,	39,	11,	-1,	-1,	-1,	-1,	-1,	36,	30,	20,	-1,	-1,	-1,	47,	-1,	14,	33,	49,	-1,	-1,	12,	-1,	-1,	23,	-1,	-1,	4,	46,	-1,	-1,	-1,	-1,	3,	-1,	-1,	-1|
20,	-1,	-1,	-1,	-1,	-1,	-1,	-1,	-1,	45,	-1,	-1,	-1,	-1,	8,	-1,	-1,	1,	-1,	-1,	-1,	10,	29,	-1,	-1,	21,	13,	33,	-1,	-1,	41,	40,	-1,	-1,	-1,	-1,	-1,	18,	-1,	-1,	3,	49,	-1,	-1,	16,	36,	-1,	-1,	-1|
-1,	-1,	42,	30,	6,	48,	34,	49,	-1,	-1,	-1,	-1,	-1,	-1,	9,	5,	16,	-1,	-1,	-1,	2,	46,	-1,	-1,	-1,	7,	-1,	-1,	25,	-1,	-1,	28,	-1,	21,	-1,	15,	-1,	8,	27,	-1,	-1,	-1,	47,	-1,	-1,	26,	1,	-1,	-1|
19,	-1,	-1,	-1,	3,	-1,	-1,	-1,	40,	-1,	-1,	25,	-1,	-1,	35,	46,	32,	-1,	-1,	-1,	27,	23,	-1,	-1,	16,	-1,	-1,	-1,	-1,	-1,	-1,	-1,	-1,	-1,	45,	47,	22,	-1,	21,	12,	-1,	41,	-1,	-1,	-1,	-1,	-1,	29,	33|
-1,	-1,	33,	15,	13,	-1,	-1,	11,	22,	-1,	-1,	-1,	-1,	32,	-1,	42,	-1,	-1,	-1,	39,	49,	31,	-1,	5,	-1,	-1,	-1,	2,	-1,	-1,	-1,	26,	-1,	-1,	27,	-1,	-1,	19,	-1,	-1,	29,	34,	-1,	-1,	-1,	-1,	-1,	-1,	-1|
43,	-1,	-1,	17,	26,	21,	-1,	-1,	-1,	-1,	24,	-1,	-1,	10,	49,	9,	-1,	37,	-1,	-1,	-1,	39,	19,	-1,	-1,	-1,	-1,	-1,	-1,	-1,	40,	36,	-1,	-1,	-1,	38,	-1,	-1,	-1,	-1,	45,	14,	-1,	-1,	-1,	-1,	-1,	-1,	42|
-1,	-1,	-1,	-1,	45,	33,	46,	-1,	-1,	1,	-1,	26,	38,	47,	-1,	-1,	31,	-1,	-1,	-1,	24,	-1,	17,	-1,	-1,	-1,	14,	20,	-1,	15,	30,	13,	28,	-1,	9,	-1,	32,	-1,	-1,	-1,	34,	19,	-1,	44,	36,	-1,	23,	-1,	-1|
-1,	-1,	-1,	-1,	-1,	44,	-1,	42,	4,	-1,	39,	17,	29,	-1,	41,	-1,	-1,	-1,	-1,	-1,	34,	-1,	12,	-1,	-1,	37,	-1,	43,	-1,	-1,	-1,	46,	-1,	33,	-1,	-1,	6,	-1,	40,	1,	10,	26,	32,	38,	-1,	28,	-1,	24,	35|
-1,	29,	-1,	5,	-1,	-1,	20,	44,	45,	23,	-1,	-1,	-1,	30,	-1,	-1,	11,	-1,	-1,	4,	-1,	16,	-1,	35,	-1,	34,	21,	31,	-1,	-1,	-1,	-1,	26,	-1,	-1,	36,	-1,	-1,	-1,	-1,	18,	-1,	-1,	46,	10,	27,	48,	-1,	9|
-1,	32,	47,	-1,	-1,	-1,	18,	33,	28,	-1,	-1,	-1,	36,	-1,	6,	-1,	26,	-1,	-1,	-1,	-1,	-1,	-1,	-1,	8,	-1,	45,	-1,	-1,	-1,	24,	-1,	34,	10,	-1,	-1,	-1,	-1,	22,	-1,	-1,	30,	-1,	-1,	-1,	40,	-1,	-1,	21|
-1,	4,	14,	-1,	-1,	-1,	-1,	22,	49,	46,	35,	40,	-1,	8,	-1,	-1,	10,	-1,	-1,	48,	33,	-1,	-1,	-1,	-1,	36,	26,	5,	-1,	31,	-1,	41,	-1,	32,	-1,	-1,	-1,	15,	-1,	25,	9,	-1,	-1,	18,	-1,	-1,	47,	20,	-1|
-1,	-1,	-1,	-1,	-1,	-1,	-1,	-1,	32,	-1,	27,	9,	-1,	-1,	18,	-1,	-1,	-1,	-1,	16,	14,	-1,	-1,	33,	38,	-1,	-1,	42,	20,	45,	-1,	-1,	-1,	-1,	39,	-1,	-1,	-1,	8,	46,	-1,	-1,	-1,	-1,	-1,	-1,	26,	6,	-1|
3,	-1,	-1,	-1,	-1,	-1,	24,	-1,	29,	22,	-1,	-1,	-1,	36,	-1,	31,	21,	48,	-1,	1,	19,	-1,	-1,	-1,	-1,	42,	18,	6,	28,	46,	8,	-1,	38,	-1,	-1,	-1,	-1,	-1,	4,	43,	-1,	-1,	30,	39,	-1,	47,	-1,	-1,	11|
-1,	-1,	2,	-1,	37,	9,	-1,	-1,	-1,	26,	-1,	-1,	48,	34,	-1,	22,	-1,	-1,	46,	-1,	11,	-1,	8,	29,	15,	-1,	-1,	-1,	7,	1,	-1,	33,	-1,	4,	-1,	18,	5,	-1,	-1,	40,	47,	-1,	-1,	-1,	-1,	16,	-1,	32,	31|
44,	-1,	-1,	36,	17,	-1,	8,	40,	24,	42,	20,	-1,	30,	41,	33,	-1,	-1,	-1,	32,	49,	-1,	-1,	35,	-1,	-1,	38,	-1,	-1,	-1,	-1,	6,	16,	9,	-1,	-1,	12,	28,	-1,	34,	-1,	-1,	11,	7,	-1,	46,	-1,	-1,	-1,	-1|
-1,	31,	40,	-1,	15,	-1,	-1,	-1,	11,	16,	43,	38,	-1,	13,	-1,	35,	-1,	-1,	12,	29,	-1,	4,	-1,	-1,	-1,	27,	-1,	-1,	36,	-1,	-1,	-1,	5,	26,	3,	-1,	-1,	42,	-1,	-1,	7,	-1,	45,	-1,	-1,	-1,	18,	-1,	-1|
-1,	6,	-1,	-1,	-1,	-1,	-1,	-1,	8,	37,	1,	-1,	-1,	4,	-1,	-1,	7,	-1,	-1,	-1,	-1,	-1,	-1,	-1,	22,	-1,	19,	-1,	41,	-1,	-1,	45,	-1,	-1,	-1,	10,	-1,	-1,	-1,	-1,	21,	27,	38,	-1,	-1,	43,	-1,	-1,	-1|
-1,	5,	46,	-1,	-1,	-1,	-1,	28,	18,	-1,	-1,	-1,	-1,	-1,	-1,	-1,	40,	30,	-1,	-1,	-1,	36,	-1,	-1,	11,	43,	-1,	-1,	19,	-1,	20,	29,	-1,	-1,	-1,	-1,	-1,	32,	-1,	3,	-1,	-1,	-1,	-1,	12,	-1,	-1,	-1,	-1|
49,	38,	26,	29,	-1,	-1,	33,	3,	46,	35,	9,	44,	32,	-1,	37,	39,	-1,	-1,	-1,	17,	-1,	40,	-1,	48,	-1,	-1,	-1,	7,	18,	11,	-1,	-1,	-1,	-1,	22,	-1,	-1,	-1,	-1,	-1,	-1,	-1,	-1,	-1,	-1,	-1,	-1,	-1,	-1|
-1,	-1,	32,	47,	-1,	-1,	42,	-1,	-1,	43,	3,	31,	10,	23,	-1,	41,	6,	19,	-1,	28,	18,	-1,	-1,	14,	34,	-1,	40,	-1,	1,	-1,	-1,	-1,	21,	36,	-1,	48,	-1,	-1,	46,	-1,	33,	-1,	39,	-1,	-1,	-1,	-1,	-1,	44|
-1,	-1,	-1,	-1,	35,	31,	-1,	-1,	-1,	32,	-1,	7,	25,	26,	-1,	-1,	-1,	-1,	2,	-1,	-1,	-1,	-1,	-1,	-1,	-1,	-1,	-1,	43,	-1,	-1,	-1,	37,	-1,	-1,	-1,	-1,	45,	10,	42,	-1,	22,	-1,	-1,	3,	-1,	-1,	-1,	-1|
-1,	28,	-1,	-1,	-1,	24,	-1,	27,	-1,	17,	-1,	-1,	-1,	-1,	-1,	16,	-1,	39,	20,	-1,	44,	-1,	-1,	-1,	41,	30,	-1,	-1,	-1,	47,	-1,	22,	-1,	-1,	42,	26,	15,	-1,	-1,	-1,	-1,	-1,	8,	9,	-1,	-1,	-1,	37,	-1|
26,	48,	9,	20,	-1,	-1,	-1,	46,	-1,	2,	-1,	16,	-1,	-1,	-1,	-1,	35,	-1,	24,	8,	-1,	28,	31,	1,	42,	45,	-1,	-1,	6,	-1,	-1,	-1,	49,	-1,	-1,	34,	-1,	-1,	-1,	-1,	-1,	36,	29,	-1,	-1,	-1,	30,	-1,	-1|
-1,	36,	-1,	6,	-1,	15,	-1,	5,	-1,	39,	-1,	24,	-1,	-1,	-1,	32,	-1,	-1,	49,	27,	-1,	11,	-1,	13,	-1,	8,	-1,	19,	31,	23,	-1,	-1,	-1,	-1,	48,	-1,	30,	28,	14,	16,	20,	-1,	-1,	10,	-1,	-1,	-1,	-1,	-1|
-1,	-1,	27,	-1,	46,	34,	-1,	-1,	-1,	-1,	-1,	-1,	-1,	22,	-1,	-1,	-1,	-1,	17,	37,	-1,	35,	25,	-1,	-1,	-1,	15,	-1,	39,	-1,	9,	-1,	32,	29,	44,	-1,	-1,	-1,	23,	-1,	11,	-1,	6,	14,	26,	-1,	-1,	-1,	38|
25,	-1,	-1,	-1,	-1,	-1,	-1,	-1,	-1,	-1,	42,	-1,	6,	49,	-1,	-1,	-1,	-1,	1,	46,	-1,	-1,	-1,	-1,	-1,	16,	10,	-1,	-1,	5,	-1,	-1,	-1,	18,	-1,	-1,	-1,	41,	-1,	-1,	-1,	-1,	-1,	-1,	31,	11,	43,	-1,	28|];
