sudoku-ls/benchmarks_LEQ/INST_49x49/40/inst49x49_40_7.txt
7
1
37	-1	-1	3	48	16	-1	47	-1	8	-1	46	27	-1	-1	-1	34	26	-1	-1	-1	-1	-1	-1	-1	-1	-1	-1	49	-1	-1	-1	36	-1	-1	9	29	6	-1	-1	-1	40	33	-1	-1	-1	11	23	30
38	10	31	4	-1	25	-1	-1	-1	-1	-1	-1	39	-1	-1	-1	-1	-1	35	-1	41	-1	-1	-1	40	-1	-1	30	-1	-1	-1	-1	-1	20	7	32	26	-1	13	15	-1	8	-1	45	-1	-1	-1	-1	-1
47	-1	-1	40	-1	-1	-1	-1	33	-1	-1	-1	11	-1	-1	-1	-1	49	-1	-1	-1	14	16	-1	43	-1	29	-1	-1	-1	-1	17	-1	-1	23	27	12	34	-1	48	-1	-1	1	24	-1	-1	-1	41	-1
-1	35	-1	-1	-1	-1	-1	9	-1	-1	-1	-1	-1	-1	23	-1	14	-1	-1	-1	37	-1	-1	-1	-1	20	-1	-1	-1	-1	-1	25	15	45	-1	-1	-1	-1	-1	47	38	-1	-1	-1	-1	-1	-1	28	-1
-1	-1	28	49	-1	-1	-1	-1	41	25	-1	42	-1	-1	-1	48	39	16	8	47	-1	13	5	6	-1	-1	-1	-1	-1	12	-1	37	-1	22	2	7	-1	30	-1	35	14	-1	-1	-1	-1	-1	-1	-1	-1
-1	9	43	-1	-1	-1	-1	-1	-1	29	-1	-1	22	45	19	2	-1	-1	36	-1	-1	-1	38	32	-1	-1	44	-1	30	-1	-1	-1	3	1	-1	20	-1	39	-1	-1	-1	31	16	-1	48	-1	-1	8	-1
6	-1	44	-1	-1	-1	7	-1	10	-1	-1	-1	-1	-1	30	43	1	-1	-1	38	45	8	-1	11	-1	49	-1	37	40	-1	-1	-1	48	34	47	-1	-1	-1	-1	19	-1	-1	-1	-1	-1	-1	-1	22	39
-1	37	11	-1	38	49	29	4	36	-1	41	3	-1	-1	10	8	-1	-1	-1	-1	39	6	22	-1	-1	2	7	-1	26	-1	17	30	-1	-1	33	-1	34	44	-1	31	32	13	28	25	-1	48	5	-1	-1
-1	-1	-1	-1	-1	-1	25	48	-1	-1	-1	29	-1	31	7	-1	17	-1	21	-1	-1	-1	39	-1	-1	15	-1	-1	-1	2	-1	14	46	42	19	30	43	-1	-1	28	22	-1	-1	-1	-1	8	-1	-1	-1
15	-1	20	-1	10	39	9	32	-1	-1	-1	-1	-1	16	44	-1	-1	-1	-1	42	3	-1	-1	45	-1	-1	-1	1	-1	4	34	-1	41	-1	-1	-1	2	46	18	23	-1	24	14	-1	-1	30	27	-1	-1
30	-1	-1	-1	43	-1	-1	21	-1	9	-1	22	-1	-1	16	-1	-1	14	6	-1	47	48	34	10	28	31	-1	-1	45	-1	-1	3	44	-1	-1	-1	20	-1	38	-1	-1	-1	-1	23	-1	12	19	46	-1
-1	14	4	31	-1	12	40	-1	-1	49	25	-1	-1	15	-1	30	-1	20	-1	41	29	27	-1	-1	47	-1	-1	24	-1	-1	-1	-1	-1	-1	-1	8	-1	-1	48	-1	19	5	44	-1	-1	13	-1	39	-1
-1	-1	19	-1	32	-1	-1	-1	23	24	-1	37	44	27	43	-1	-1	28	-1	-1	13	-1	-1	-1	-1	14	30	-1	-1	48	7	-1	39	-1	20	-1	4	-1	36	-1	-1	-1	-1	-1	33	-1	2	-1	-1
-1	-1	3	-1	-1	-1	23	2	-1	-1	46	-1	-1	-1	-1	-1	12	-1	5	-1	-1	-1	-1	42	17	19	11	26	-1	-1	-1	-1	-1	49	36	39	-1	-1	-1	-1	-1	-1	-1	-1	4	-1	-1	-1	-1
-1	-1	-1	32	-1	-1	-1	30	-1	-1	22	15	-1	18	-1	-1	-1	35	-1	-1	16	-1	-1	-1	9	-1	12	28	-1	-1	38	-1	-1	-1	1	19	45	-1	-1	-1	-1	3	-1	-1	-1	-1	39	-1	-1
-1	1	21	-1	14	-1	-1	-1	16	-1	-1	-1	-1	-1	-1	-1	18	-1	-1	-1	-1	-1	40	-1	-1	-1	35	-1	22	-1	-1	-1	-1	-1	-1	-1	44	-1	-1	-1	-1	32	25	31	15	10	-1	-1	-1
11	-1	-1	-1	-1	-1	37	12	44	19	-1	-1	24	46	-1	4	-1	-1	-1	-1	-1	-1	-1	-1	-1	10	39	-1	17	-1	-1	-1	40	-1	-1	-1	-1	38	-1	-1	42	-1	-1	-1	-1	-1	9	-1	-1
41	33	-1	-1	-1	-1	-1	-1	17	5	-1	-1	42	-1	24	23	-1	-1	-1	-1	8	-1	-1	34	45	-1	3	-1	15	-1	-1	-1	-1	14	31	-1	-1	21	-1	9	26	-1	-1	-1	35	1	-1	-1	-1
39	-1	16	-1	-1	-1	6	29	-1	-1	-1	-1	-1	-1	45	-1	-1	12	-1	-1	-1	-1	-1	-1	-1	-1	42	-1	-1	-1	-1	-1	24	-1	41	-1	25	-1	-1	-1	-1	46	-1	-1	-1	-1	21	38	-1
-1	18	-1	-1	49	-1	38	45	2	-1	-1	1	-1	25	14	10	48	-1	-1	36	20	-1	-1	30	5	-1	16	-1	-1	-1	-1	-1	-1	-1	21	-1	-1	-1	-1	24	-1	15	-1	-1	-1	17	-1	27	-1
-1	-1	24	-1	-1	-1	-1	43	7	-1	-1	32	-1	-1	-1	-1	37	-1	-1	-1	-1	33	-1	-1	-1	46	-1	-1	-1	-1	-1	-1	-1	-1	-1	-1	1	-1	-1	11	17	-1	3	47	20	18	-1	45	-1
-1	12	29	8	36	45	49	1	-1	13	37	-1	7	-1	-1	34	-1	40	-1	31	-1	25	-1	-1	32	-1	-1	15	2	-1	-1	24	20	-1	10	-1	33	-1	5	38	-1	-1	-1	30	22	-1	-1	43	-1
27	7	10	-1	44	-1	-1	15	21	33	38	-1	-1	-1	-1	-1	3	6	-1	-1	-1	-1	42	-1	-1	-1	-1	-1	-1	-1	-1	-1	-1	16	30	-1	17	-1	32	-1	1	-1	-1	2	49	-1	24	11	-1
-1	21	-1	9	24	-1	16	-1	-1	-1	-1	-1	28	-1	-1	-1	-1	-1	-1	-1	-1	30	20	-1	-1	-1	47	-1	14	33	-1	-1	-1	12	-1	42	23	-1	-1	4	-1	-1	-1	32	-1	3	-1	-1	10
-1	-1	38	-1	4	-1	-1	-1	30	-1	-1	-1	-1	19	-1	-1	-1	-1	14	-1	-1	-1	29	39	27	-1	-1	-1	-1	43	-1	-1	-1	-1	-1	-1	-1	18	-1	-1	-1	-1	-1	15	-1	36	-1	42	48
-1	22	42	-1	-1	48	34	-1	-1	-1	12	-1	4	-1	9	-1	16	-1	-1	33	-1	-1	14	17	-1	-1	-1	-1	-1	-1	-1	28	-1	-1	-1	15	-1	8	27	-1	-1	-1	-1	37	-1	-1	-1	-1	-1
19	43	-1	1	-1	-1	-1	-1	-1	36	14	-1	-1	-1	-1	-1	32	-1	-1	-1	-1	23	-1	26	-1	-1	49	-1	13	-1	42	9	4	-1	45	-1	-1	-1	21	-1	6	-1	5	34	8	-1	-1	-1	33
46	40	-1	-1	-1	14	47	11	22	41	-1	6	-1	-1	-1	-1	43	-1	25	39	-1	31	-1	-1	-1	1	-1	-1	3	17	-1	26	23	-1	-1	-1	35	-1	-1	-1	-1	34	-1	28	-1	-1	-1	9	-1
-1	15	-1	17	26	-1	28	20	-1	-1	24	41	34	10	-1	-1	2	37	44	12	-1	-1	19	46	4	-1	-1	23	48	7	-1	-1	-1	35	-1	-1	27	-1	3	13	-1	-1	-1	-1	11	33	-1	1	42
42	39	6	-1	-1	-1	46	-1	25	-1	48	-1	-1	-1	22	-1	31	-1	43	-1	-1	18	17	27	10	-1	14	-1	-1	-1	30	-1	-1	-1	9	29	-1	37	35	-1	-1	-1	2	-1	-1	-1	23	12	-1
8	-1	-1	25	-1	-1	36	42	4	-1	-1	-1	-1	-1	-1	-1	-1	45	-1	-1	34	3	-1	-1	-1	37	48	-1	-1	16	-1	-1	14	-1	18	-1	-1	5	40	1	-1	-1	32	-1	30	-1	22	-1	-1
-1	-1	-1	5	-1	22	20	-1	45	23	15	14	43	-1	-1	-1	-1	32	42	4	-1	-1	6	35	-1	-1	21	-1	-1	3	-1	49	26	8	38	-1	-1	-1	33	-1	18	28	-1	-1	10	-1	48	19	-1
-1	32	-1	48	27	-1	18	-1	28	12	-1	-1	36	-1	-1	-1	26	46	7	35	-1	15	-1	-1	-1	29	45	41	23	-1	-1	1	-1	-1	-1	-1	-1	-1	-1	-1	-1	-1	-1	-1	-1	-1	-1	-1	-1
-1	-1	-1	38	-1	2	-1	22	49	46	35	40	3	8	-1	-1	-1	-1	-1	48	-1	-1	44	-1	-1	-1	-1	5	-1	-1	-1	41	11	-1	-1	-1	-1	15	16	25	9	12	34	18	-1	45	-1	-1	-1
-1	-1	-1	34	-1	35	12	-1	-1	-1	-1	9	37	-1	18	-1	36	-1	-1	16	-1	7	49	33	-1	22	-1	-1	-1	-1	19	-1	43	17	-1	4	48	-1	8	46	41	-1	15	-1	-1	25	26	-1	3
-1	27	-1	41	34	-1	24	7	29	-1	-1	10	-1	-1	-1	-1	-1	48	-1	1	-1	-1	-1	-1	-1	-1	18	-1	28	-1	-1	15	-1	37	-1	-1	-1	-1	4	-1	-1	-1	-1	-1	44	47	13	-1	11
-1	42	-1	-1	37	-1	-1	-1	19	26	-1	-1	-1	34	-1	-1	41	24	46	-1	-1	-1	8	29	-1	39	20	-1	-1	1	-1	33	-1	-1	-1	-1	5	13	-1	-1	47	-1	35	3	-1	16	10	32	31
44	19	-1	36	-1	-1	-1	40	24	-1	20	-1	30	-1	33	18	23	-1	-1	49	-1	-1	-1	-1	-1	38	-1	-1	10	-1	-1	-1	-1	-1	14	-1	28	1	-1	-1	-1	-1	-1	-1	-1	-1	15	-1	-1
14	-1	40	-1	-1	23	10	17	11	-1	43	38	-1	13	-1	-1	8	2	-1	29	-1	-1	30	-1	24	27	1	47	-1	-1	48	39	-1	-1	3	46	-1	-1	25	-1	-1	44	-1	-1	-1	-1	18	-1	-1
32	6	18	-1	16	11	30	-1	-1	37	1	-1	-1	4	-1	-1	7	13	-1	-1	-1	-1	46	28	-1	-1	19	-1	-1	42	44	45	-1	-1	-1	10	-1	-1	-1	-1	21	-1	-1	-1	23	43	-1	48	-1
-1	5	-1	22	7	-1	-1	-1	-1	-1	33	-1	47	6	38	-1	40	30	-1	-1	-1	-1	-1	16	11	-1	-1	-1	-1	-1	-1	-1	-1	23	-1	37	-1	32	15	3	-1	35	42	41	-1	24	-1	-1	49
-1	38	-1	-1	-1	-1	-1	-1	46	35	-1	-1	-1	14	-1	-1	-1	42	-1	17	-1	-1	10	48	21	23	-1	-1	-1	-1	-1	-1	47	43	22	-1	-1	-1	-1	45	-1	-1	-1	8	19	6	-1	-1	-1
45	30	32	47	-1	38	-1	-1	15	-1	-1	31	10	23	25	-1	-1	19	-1	-1	-1	5	27	-1	-1	-1	-1	-1	-1	-1	-1	4	-1	36	17	48	-1	9	46	-1	-1	-1	-1	49	-1	-1	-1	-1	44
-1	-1	-1	-1	-1	-1	41	-1	-1	-1	8	-1	-1	26	-1	-1	-1	-1	2	-1	48	-1	24	-1	33	-1	-1	39	-1	14	28	-1	37	-1	34	-1	-1	-1	-1	42	27	-1	19	13	3	46	16	-1	-1
18	28	-1	19	40	-1	-1	27	13	-1	-1	-1	21	-1	-1	-1	33	-1	-1	-1	-1	49	-1	38	41	30	-1	-1	-1	-1	25	-1	-1	46	-1	-1	-1	-1	-1	-1	-1	7	8	9	-1	2	-1	-1	-1
26	-1	-1	-1	-1	-1	-1	-1	-1	-1	40	-1	-1	-1	13	-1	-1	4	-1	8	43	-1	-1	1	42	-1	-1	18	-1	-1	-1	-1	49	7	11	34	3	25	-1	-1	5	-1	29	-1	-1	-1	-1	-1	-1
33	-1	7	-1	-1	-1	17	-1	-1	39	-1	-1	-1	-1	-1	-1	9	22	49	27	26	-1	4	-1	-1	-1	37	-1	31	-1	-1	-1	-1	-1	-1	-1	30	-1	-1	-1	-1	47	21	10	25	42	-1	34	-1
-1	-1	-1	-1	46	34	-1	-1	-1	-1	-1	45	19	-1	3	-1	-1	-1	17	37	-1	35	-1	-1	-1	47	-1	-1	-1	-1	9	-1	32	-1	-1	-1	49	24	-1	-1	-1	18	6	14	-1	-1	33	-1	-1
25	23	-1	-1	-1	-1	-1	14	-1	30	42	33	-1	-1	-1	38	45	34	-1	-1	-1	2	-1	-1	7	-1	10	29	24	-1	15	20	-1	18	-1	-1	-1	-1	19	32	-1	17	-1	-1	31	11	43	47	28
49 
49 19 2 7
15 34 19 45
45 28 12 23
6 26 34 2
23 29 36 48
12 34 39 21
10 10 17 37
33 25 16 28
22 23 14 18
28 18 45 20
48 41 45 12
18 3 42 31
19 19 35 8
36 37 29 42
24 17 8 48
2 33 47 40
40 33 11 14
28 49 22 31
41 29 8 19
3 17 9 49
4 46 10 48
43 28 46 44
17 32 46 46
11 4 47 12
18 20 26 29
23 20 4 30
41 10 37 45
46 22 10 34
43 42 29 35
27 20 16 48
17 15 29 43
44 10 34 34
34 21 11 13
38 39 32 26
22 1 8 13
18 48 32 36
33 30 19 14
47 32 13 34
4 25 36 44
10 36 14 20
6 40 26 27
48 17 4 5
29 1 19 41
14 2 22 30
37 7 35 30
5 21 27 16
34 47 9 2
45 14 15 3
29 15 18 11
